
<<< setup


<<< generate

CPXPARAM_Simplex_Tolerances_Optimality           0.001
CPXPARAM_Simplex_Tolerances_Feasibility          0.001
CPXPARAM_TimeLimit                               3600
CPXPARAM_Threads                                 8
CPXPARAM_MIP_Tolerances_AbsMIPGap                0.001
CPXPARAM_MIP_Tolerances_MIPGap                   0.001
CPXPARAM_MIP_Tolerances_Integrality              0.001
CPXPARAM_MIP_Display                             4
CPXPARAM_MIP_PolishAfter_Solutions               1
Tried aggregator 1 time.
MIQCP Presolve eliminated 2 rows and 2 columns.
Reduced MIQCP has 39 rows, 135 columns, and 669 nonzeros.
Reduced MIQCP has 0 binaries, 16 generals, 0 SOSs, and 0 indicators.
Reduced MIQCP has 4 quadratic constraints.
Presolve time = 0.00 sec. (0.18 ticks)
MIP emphasis: balance optimality and feasibility.
MIP search method: dynamic search.
Parallel mode: deterministic, using up to 8 threads.
Dual infeasible due to empty column 'x(2)'.
Presolve time = 0.00 sec. (0.03 ticks)
Tried aggregator 1 time.
LP Presolve eliminated 35 rows and 35 columns.
Aggregator did 2 substitutions.
Reduced LP has 2 rows, 98 columns, and 66 nonzeros.
Presolve time = 0.00 sec. (0.05 ticks)
Initializing dual steep norms . . .

Iteration log . . .
Iteration:     1    Scaled infeas =             0.000000
Root relaxation solution time = 0.00 sec. (0.16 ticks)

        Nodes                                         Cuts/
   Node  Left     Objective  IInf  Best Integer    Best Bound    ItCnt     Gap

      0     0      181.9351    16                    181.9351       19         
*     0+    0                          186.5889      181.9351             2.49%
Found incumbent of value 186.588925 after 0.03 sec. (8.00 ticks)

Starting condition for polishing reached (PolishAfterIntSol).
Starting solution polishing.

      0     2      181.9351    16      186.5889      181.9351       37    2.49%
Elapsed time = 0.03 sec. (10.91 ticks, tree = 0.01 MB, solutions = 1)
*     1+    1                          184.6263      181.9351             1.46%
Found incumbent of value 184.626340 after 0.08 sec. (22.66 ticks)
      1     3      182.4300    15      184.6263      181.9351       56    1.46%
      2     3      182.3432    15      184.6263      181.9351       54    1.46%
      3     4      182.9210    14      184.6263      181.9351       72    1.46%
      4     4      182.7100    14      184.6263      181.9351       78    1.46%
      5     5      182.3444    14      184.6263      182.3432       95    1.24%
      6     6      182.9226    13      184.6263      182.3432      107    1.24%
      7     7      182.7117    13      184.6263      182.3432      130    1.24%
      8     5      182.3443    14      184.6263      182.3432       94    1.24%
      9     6      182.9218    13      184.6263      182.3432      107    1.24%
     10     7      182.7107    13      184.6263      182.3432      129    1.24%
Elapsed time = 40.47 sec. (52572.34 ticks, tree = 0.01 MB, solutions = 3)
     11     8      183.0672    13      184.6263      182.3432      154    1.24%
     12     9      183.3336    12      184.6263      182.3432      170    1.24%
     13     8      182.8578    13      184.6263      182.3432      148    1.24%
     14     9      183.0621    12      184.6263      182.3432      166    1.24%
     15    10      182.8534    12      184.6263      182.3432      191    1.24%
     16    12      183.0613    12      184.6263      182.3443      234    1.24%
     18    13      182.8524    12      184.6263      182.3443      245    1.24%
     20    15      183.8771    11      184.6263      182.3443      288    1.24%
     21    16      183.9708    12      184.6263      182.3443      301    1.24%
     22    17      183.5678    11      184.6263      182.3443      316    1.24%
Elapsed time = 72.95 sec. (88120.66 ticks, tree = 0.01 MB, solutions = 3)
     23    18      183.0196    11      184.6263      182.3443      336    1.24%
     24    19      183.5665    11      184.6263      182.3443      362    1.24%
     25    20      184.0881    12      184.6263      182.3443      383    1.24%
     26    22      183.5745    11      184.6263      182.3443      424    1.24%
     27    21      183.0186    11      184.6263      182.3443      399    1.24%
     29    24      184.5002    11      184.6263      182.3443      461    1.24%
     30    25      184.0321    10      184.6263      182.3443      483    1.24%
     31    26      183.4303    10      184.6263      182.3443      498    1.24%
     32    27      184.0303    10      184.6263      182.3443      518    1.24%
     33    28      184.2462    11      184.6263      182.3443      540    1.24%
Elapsed time = 105.89 sec. (123889.52 ticks, tree = 0.01 MB, solutions = 3)
     34    29      184.1231    10      184.6263      182.3443      558    1.24%
     35    30      183.4287    10      184.6263      182.3443      578    1.24%
     36    29        cutoff            184.6263      182.3443      596    1.24%
     37    30        cutoff            184.6263      182.3443      614    1.24%
     38    31        cutoff            184.6263      182.3443      632    1.24%
     39    33        cutoff            184.6263      182.3443      666    1.24%
     41    36      184.3473    10      184.6263      182.3443      685    1.24%
     42    36        cutoff            184.6263      182.3443      724    1.24%
     44    35        cutoff            184.6263      182.3443      738    1.24%
     45    34        cutoff            184.6263      182.3443      763    1.24%
Elapsed time = 146.44 sec. (168693.73 ticks, tree = 0.01 MB, solutions = 3)
     46    33        cutoff            184.6263      182.3443      780    1.24%
     47    32        cutoff            184.6263      182.3443      793    1.24%
     48    33      183.7835     9      184.6263      182.3443      818    1.24%
     49    34      184.4194     9      184.6263      182.3443      833    1.24%
     50    30        cutoff            184.6263      182.3443      875    1.24%
     51    33      183.7816     9      184.6263      182.3443      851    1.24%
     52    31      183.9706    12      184.6263      182.3443      890    1.24%
     53    29      184.4117     9      184.6263      182.3443      930    1.24%
     56    27        cutoff            184.6263      182.3443      972    1.24%
     57    27        cutoff            184.6263      182.3443     1006    1.24%
Elapsed time = 178.55 sec. (204403.67 ticks, tree = 0.01 MB, solutions = 3)
     59    28        cutoff            184.6263      182.3443     1026    1.24%
     60    31      184.4995    11      184.6263      182.3443     1038    1.24%
     61    32        cutoff            184.6263      182.3443     1094    1.24%
     63    33      184.2482    11      184.6263      182.3443     1072    1.24%
     65    32      183.3507    11      184.6263      182.3443     1135    1.24%
     67    32      184.0555     8      184.6263      182.3443     1169    1.24%
     68    31        cutoff            184.6263      182.3443     1187    1.24%
     69    29        cutoff            184.6263      182.3443     1226    1.24%
     71    31        cutoff            184.6263      182.3443     1267    1.24%
     72    32      184.3493    10      184.6263      182.3443     1246    1.24%
Elapsed time = 226.89 sec. (253649.06 ticks, tree = 0.01 MB, solutions = 3)
     73    34        cutoff            184.6263      182.3443     1327    1.24%
     74    35      184.5995     6      184.6263      182.3443     1311    1.24%
     76    33        cutoff            184.6263      182.3443     1347    1.24%
     77    33      183.3516    11      184.6263      182.3443     1377    1.24%
     78    34      183.3328    12      184.6263      182.3443     1361    1.24%
     79    32      184.2218     7      184.6263      182.3443     1396    1.24%
     80    33      184.4212     9      184.6263      182.3443     1409    1.24%
     81    31        cutoff            184.6263      182.3443     1457    1.24%
     82    32        cutoff            184.6263      182.3443     1476    1.24%
     84    31        cutoff            184.6263      182.3443     1493    1.24%
Elapsed time = 266.41 sec. (292881.84 ticks, tree = 0.01 MB, solutions = 3)
     85    34      183.7974    10      184.6263      182.3443     1511    1.24%
     86    35      183.8758    11      184.6263      182.3443     1531    1.24%
     87    36      184.3489     6      184.6263      182.3443     1548    1.24%
     88    34        cutoff            184.6263      182.3443     1591    1.24%
     91    36      184.3467     6      184.6263      182.3443     1627    1.24%
     92    33        cutoff            184.6263      182.3443     1647    1.24%
     93    34        cutoff            184.6263      182.3443     1677    1.24%
     94    35        cutoff            184.6263      182.3443     1691    1.24%
     95    38      184.4574     5      184.6263      182.3443     1707    1.24%
     96    37        cutoff            184.6263      182.3443     1771    1.24%
Elapsed time = 300.27 sec. (333174.20 ticks, tree = 0.01 MB, solutions = 3)
     97    37      183.0680    13      184.6263      182.7107     1729    1.04%
     98    38      184.5653     7      184.6263      182.7107     1750    1.04%
    100    37        cutoff            184.6263      182.7107     1806    1.04%
    101    38      184.1812     9      184.6263      182.7107     1833    1.04%
    102    37      184.3957    10      184.6263      182.7107     1856    1.04%
    103    38      184.5012     4      184.6263      182.7107     1875    1.04%
    105    38      183.4827    12      184.6263      182.7107     1911    1.04%
    106    40      184.4989     4      184.6263      182.7107     1953    1.04%
    107    39      184.6012     6      184.6263      182.7107     1934    1.04%
    108    37        cutoff            184.6263      182.7107     1966    1.04%
Elapsed time = 338.45 sec. (373406.57 ticks, tree = 0.01 MB, solutions = 3)
    109    38        cutoff            184.6263      182.7107     1985    1.04%
    110    39        cutoff            184.6263      182.7107     2005    1.04%
    111    41        cutoff            184.6263      182.7107     2047    1.04%
    112    42      184.5543     3      184.6263      182.7107     2033    1.04%
    113    44      183.4362    12      184.6263      182.7107     2067    1.04%
    114    45      184.5526     4      184.6263      182.7107     2095    1.04%
    116    43        cutoff            184.6263      182.7107     2132    1.04%
    117    44      184.4833     8      184.6263      182.7107     2153    1.04%
    119    40        cutoff            184.6263      182.7107     2183    1.04%
    121    43        cutoff            184.6263      182.7107     2252    1.04%
Elapsed time = 375.05 sec. (414339.72 ticks, tree = 0.01 MB, solutions = 3)
    124    43      184.0945    11      184.6263      182.7107     2284    1.04%
    127    42      183.4819    12      184.6263      182.7107     2346    1.04%
    128    41      184.5873     2      184.6263      182.7107     2377    1.04%
    132    38        cutoff            184.6263      182.7107     2467    1.04%
    135    40      184.0932    11      184.6263      182.7107     2506    1.04%
    137    40        cutoff            184.6263      182.7107     2547    1.04%
    140    39        cutoff            184.6263      182.7107     2607    1.04%
    142    41      184.4365    10      184.6263      182.7107     2647    1.04%
    144    41        cutoff            184.6263      182.7107     2692    1.04%
    147    44      184.5665    10      184.6263      182.7107     2751    1.04%
Elapsed time = 459.19 sec. (499562.20 ticks, tree = 0.01 MB, solutions = 3)
    148    41        cutoff            184.6263      182.7107     2777    1.04%
    150    41        cutoff            184.6263      182.7107     2813    1.04%
    152    39        cutoff            184.6263      182.7107     2857    1.04%
    155    38        cutoff            184.6263      182.7107     2920    1.04%
    156    39      184.4726    11      184.6263      182.7107     2942    1.04%
    158    35        cutoff            184.6263      182.7107     2978    1.04%
    160    34      183.8481    11      184.6263      182.7107     3033    1.04%
    163    30        cutoff            184.6263      182.7117     3073    1.04%
    164    29        cutoff            184.6263      182.7117     3128    1.04%
    168    32      183.2838    11      184.6263      182.7117     3183    1.04%
Elapsed time = 519.45 sec. (570131.77 ticks, tree = 0.01 MB, solutions = 3)
    171    30        cutoff            184.6263      183.1182     3224    0.82%
    172    29        cutoff            184.6263      183.1182     3246    0.82%
    176    31      183.7285    10      184.6263      183.1182     3321    0.82%
    178    33      183.7300    10      184.6263      183.1182     3355    0.82%
    179    30        cutoff            184.6263      183.1182     3373    0.82%
    180    27        cutoff            184.6263      183.1182     3435    0.82%
    184    27        cutoff            184.6263      183.1182     3471    0.82%
    186    27        cutoff            184.6263      183.1182     3511    0.82%
    187    23        cutoff            184.6263      183.1182     3589    0.82%
    188    23      184.1310     9      184.6263      183.1182     3625    0.82%
Elapsed time = 581.55 sec. (645174.42 ticks, tree = 0.01 MB, solutions = 3)
    191    21      184.1329     9      184.6263      183.1182     3662    0.82%
    193    19        cutoff            184.6263      183.1182     3707    0.82%
    195    20        cutoff            184.6263      183.1192     3757    0.82%
    197    22      184.4552     8      184.6263      183.6166     3803    0.55%
    198    23      184.5329     9      184.6263      183.6166     3825    0.55%
    200    21        cutoff            184.6263      183.6166     3859    0.55%
    203    22        cutoff            184.6263      183.6166     3873    0.55%
    204    23        cutoff            184.6263      183.6166     3893    0.55%
    205    23        cutoff            184.6263      184.0977     3969    0.29%

Root node processing (before b&c):
  Real time             =    0.03 sec. (8.01 ticks)
Parallel b&c, 8 threads:
  Real time             =  637.86 sec. (733142.27 ticks)
  Sync time (average)   =   53.32 sec.
  Wait time (average)   =    0.00 sec.
                          ------------
Total (root+branch&cut) =  637.89 sec. (733150.27 ticks)

<<< solve


OBJECTIVE: 184.6263
X*: [114.73 -6.1607 7.0003 -6.1607 7.0002 -6.1607 6.9999 -6.1609 6.9992 -6.1612
     6.9973 -6.162 6.9929 -6.1638 6.9822 -6.1684] Z*: [-7 -6 7 -6 7 -6 6 -6 5 -7 3 -7 0 -8 -3 -9]
f*:184.626340706

<<< post process


<<< done

